db/inputs/153288283191811144102454265117220557.smt2
(set-logic QF_FP)
(declare-const x0 (_ FloatingPoint 11 53))
(declare-const x1 (_ FloatingPoint 11 53))
(declare-const x2 (_ FloatingPoint 11 53))
(declare-const x3 (_ FloatingPoint 11 53))
(declare-const x4 (_ FloatingPoint 11 53))
(declare-const x5 (_ FloatingPoint 11 53))
(declare-const x6 (_ FloatingPoint 11 53))
(declare-const x7 (_ FloatingPoint 11 53))
(declare-const x8 (_ FloatingPoint 11 53))
(declare-const x9 (_ FloatingPoint 11 53))
(assert (fp.leq (fp.mul RNE x1 x8) (fp.neg x5)))
(assert (fp.geq (fp.add RNE x0 x9) (fp.neg x0)))
(assert (fp.gt (fp.div RNE x4 x9) (fp.sub RNE x3 x0)))
(assert (fp.leq (fp.mul RNE x8 x0) (fp.sub RNE x4 x5)))
(assert (fp.eq (fp.mul RNE x7 x2) (fp.mul RNE x6 x2)))
(check-sat)
