db/data/153288283191811144102454265117220557.z3.out
sat
-------------------
71.558712882
